100 3 100
20 27 22 11 83 14 99 29 9 4 62 49 69 55 14 73 36 54 73 90 49 88 57 49 78 90 13 56 26 37 49 98 64 23 9 47 37 61 28 47 65 90 48 86 97 14 59 33 69 32 75 70 73 32 72 51 75 85 60 53 22 9 51 38 85 12 38 22 73 66 21 39 9 22 25 58 36 37 44 57 69 19 28 94 4 46 31 37 58 84 11 19 87 49 4 99 87 79 73 6 
